Route #1: 42 28 18 24 10 58 6 32 36 67
Route #2: 40 55 23 39 11 3 25
Route #3: 19 53 38 50 63
Route #4: 27 65 66 43 7 47
Route #5: 46 13 5 14 62 30 59 45 12
Route #6: 54 21 16 44 34 48 9 57 20
Route #7: 31 64 35 60 4 1 33 56 15
Route #8: 41 37 2 22 49 52
Route #9: 17 26 61 51 8 29
Cost 1277
Time 0.122745
